c SAT Generator for power-law distributed variable frequencies
c -g u -v 20 -c 91 -k 3 -p 2.750000 -b 3.200000 -f /home/schmidt/Devel/ni-kop-sat/data/ensemble/ruf20-91/ruf20-91-133 -u 1 -U 1 -s 901964346
p cnf 20 91
10 -12 -16 0
-3 5 18 0
13 -14 15 0
-11 -13 15 0
-8 -11 -19 0
2 4 -18 0
4 -8 20 0
-4 -5 -10 0
-6 -18 20 0
9 15 -18 0
-2 -12 -18 0
-9 -13 -20 0
15 -16 -18 0
3 10 -13 0
7 9 -19 0
1 -17 18 0
-3 -8 -12 0
2 4 16 0
5 -10 15 0
2 -9 -18 0
2 3 9 0
4 -7 16 0
7 -8 17 0
3 4 20 0
4 -5 18 0
7 10 -17 0
12 -16 -18 0
-1 -7 -16 0
-5 9 13 0
-3 -4 20 0
3 -6 -19 0
-4 8 15 0
1 -10 -14 0
-11 -16 -19 0
-6 10 16 0
-12 14 -19 0
1 -2 -5 0
8 -9 -16 0
-5 6 -11 0
1 9 -19 0
2 -7 14 0
11 17 20 0
-11 -15 17 0
-5 -8 9 0
4 -12 -19 0
-1 12 17 0
7 -10 13 0
14 -16 18 0
-1 -8 -17 0
5 6 -16 0
5 14 -15 0
7 -11 19 0
1 -6 -13 0
-7 12 15 0
-3 -17 -20 0
-3 -8 14 0
4 8 17 0
5 -11 -15 0
-1 -4 17 0
-5 12 19 0
-5 -12 13 0
9 17 18 0
-3 7 17 0
-11 -13 -14 0
4 -6 12 0
3 9 13 0
-2 11 14 0
-4 -11 -13 0
-6 -12 15 0
3 -11 12 0
-6 -10 -20 0
-8 12 -19 0
-3 7 -17 0
-5 13 -14 0
-8 -12 -19 0
3 -8 11 0
-10 -17 -18 0
8 -14 15 0
-2 12 -18 0
9 15 -19 0
-6 8 -10 0
-2 -7 -11 0
7 -10 15 0
2 6 -11 0
2 3 6 0
-4 5 16 0
9 -18 20 0
2 -9 -19 0
1 -7 20 0
1 14 17 0
-2 -7 -15 0
